paper_width = 40;
paper_height = 40;
n_presents = 20;
presents_dimensions = [|
3, 3|
3, 4|
3, 5|
3, 6|
3, 7|
3, 8|
3, 9|
3, 10|
3, 12|
3, 16|
3, 40|
4, 4|
4, 14|
4, 22|
5, 3|
5, 4|
5, 8|
5, 12|
5, 13|
22, 40|];